c Generated map
c Size: 8 * 8, weights in range: 1 to 10, walls: False, with ratio 0.0
c dim 1 of 10
c
p sp 64 112
c graph contains 64 nodes and 112 arcs
c
a 1 9 6
a 9 1 6
a 1 2 7
a 2 1 7
a 2 10 3
a 10 2 3
a 2 3 9
a 3 2 9
a 3 11 6
a 11 3 6
a 3 4 7
a 4 3 7
a 4 12 3
a 12 4 3
a 4 5 9
a 5 4 9
a 5 13 9
a 13 5 9
a 5 6 1
a 6 5 1
a 6 14 5
a 14 6 5
a 6 7 4
a 7 6 4
a 7 15 3
a 15 7 3
a 7 8 4
a 8 7 4
a 8 16 6
a 16 8 6
a 9 17 8
a 17 9 8
a 9 10 3
a 10 9 3
a 10 18 3
a 18 10 3
a 10 11 1
a 11 10 1
a 11 19 3
a 19 11 3
a 11 12 6
a 12 11 6
a 12 20 4
a 20 12 4
a 12 13 8
a 13 12 8
a 13 21 6
a 21 13 6
a 13 14 9
a 14 13 9
a 14 22 2
a 22 14 2
a 14 15 6
a 15 14 6
a 15 23 10
a 23 15 10
a 15 16 3
a 16 15 3
a 16 24 4
a 24 16 4
a 17 25 2
a 25 17 2
a 17 18 1
a 18 17 1
a 18 26 7
a 26 18 7
a 18 19 5
a 19 18 5
a 19 27 5
a 27 19 5
a 19 20 3
a 20 19 3
a 20 28 2
a 28 20 2
a 20 21 6
a 21 20 6
a 21 29 5
a 29 21 5
a 21 22 4
a 22 21 4
a 22 30 7
a 30 22 7
a 22 23 7
a 23 22 7
a 23 31 10
a 31 23 10
a 23 24 7
a 24 23 7
a 24 32 10
a 32 24 10
a 25 33 7
a 33 25 7
a 25 26 7
a 26 25 7
a 26 34 2
a 34 26 2
a 26 27 4
a 27 26 4
a 27 35 9
a 35 27 9
a 27 28 5
a 28 27 5
a 28 36 6
a 36 28 6
a 28 29 1
a 29 28 1
a 29 37 3
a 37 29 3
a 29 30 1
a 30 29 1
a 30 38 7
a 38 30 7
a 30 31 5
a 31 30 5
a 31 39 9
a 39 31 9
a 31 32 8
a 32 31 8
a 32 40 1
a 40 32 1
a 33 41 6
a 41 33 6
a 33 34 10
a 34 33 10
a 34 42 10
a 42 34 10
a 34 35 5
a 35 34 5
a 35 43 1
a 43 35 1
a 35 36 3
a 36 35 3
a 36 44 7
a 44 36 7
a 36 37 6
a 37 36 6
a 37 45 4
a 45 37 4
a 37 38 6
a 38 37 6
a 38 46 10
a 46 38 10
a 38 39 2
a 39 38 2
a 39 47 6
a 47 39 6
a 39 40 2
a 40 39 2
a 40 48 6
a 48 40 6
a 41 49 9
a 49 41 9
a 41 42 3
a 42 41 3
a 42 50 3
a 50 42 3
a 42 43 10
a 43 42 10
a 43 51 8
a 51 43 8
a 43 44 1
a 44 43 1
a 44 52 5
a 52 44 5
a 44 45 7
a 45 44 7
a 45 53 6
a 53 45 6
a 45 46 2
a 46 45 2
a 46 54 7
a 54 46 7
a 46 47 2
a 47 46 2
a 47 55 1
a 55 47 1
a 47 48 10
a 48 47 10
a 48 56 4
a 56 48 4
a 49 57 4
a 57 49 4
a 49 50 3
a 50 49 3
a 50 58 4
a 58 50 4
a 50 51 4
a 51 50 4
a 51 59 2
a 59 51 2
a 51 52 9
a 52 51 9
a 52 60 10
a 60 52 10
a 52 53 5
a 53 52 5
a 53 61 3
a 61 53 3
a 53 54 3
a 54 53 3
a 54 62 2
a 62 54 2
a 54 55 3
a 55 54 3
a 55 63 9
a 63 55 9
a 55 56 8
a 56 55 8
a 56 64 5
a 64 56 5
a 57 58 6
a 58 57 6
a 58 59 5
a 59 58 5
a 59 60 6
a 60 59 6
a 60 61 3
a 61 60 3
a 61 62 9
a 62 61 9
a 62 63 5
a 63 62 5
a 63 64 5
a 64 63 5
